c User generated cnf file
p cnf 12 40
10 10 -11 0 
3 -8 9 0 
9 9 -4 0 
5 2 -10 0 
5 -2 12 0 
2 -7 2 0 
2 -6 12 0 
3 6 -12 0 
1 -12 11 0 
10 -3 7 0 
5 10 -10 0 
10 5 -8 0 
4 -12 3 0 
8 -4 6 0 
1 8 -3 0 
3 6 -1 0 
12 10 -11 0 
12 10 -3 0 
7 -4 12 0 
4 1 -8 0 
8 4 -1 0 
10 -6 1 0 
9 12 -8 0 
1 10 -10 0 
6 5 -11 0 
1 -1 11 0 
9 -8 3 0 
4 10 -4 0 
2 -9 9 0 
11 -4 8 0 
12 -10 5 0 
1 9 -1 0 
6 6 -11 0 
8 -4 1 0 
11 -11 8 0 
5 -6 11 0 
8 -2 8 0 
6 11 -7 0 
3 3 -9 0 
2 -12 12 0 
